% [0,5] 3 [3,8] 4 [7,10] 
%   1-------2-------3
%       3   |   3   |
%         10|10    5|3  (edge values outside are travel time, and values inside are distance)
%       3   |   3   |
%   6-------5-------4
%[14,20]3[11,12]1[10,11](the numbers in the corners represents the upper and lower bounds for each node [lb,ub])
%
% shortest possible path is 1-2-3-4-5-6 with length 17
% (edge 2-5 is not possible due to the time constraints)
N = 6;
M = 6;
Edge_Start =  [1,2,3,4,5,2];
Edge_End   =  [2,3,4,5,6,5];
L =           [3,3,5,3,3,10];
T =           [3,4,3,1,3,10];
Lower_Bound = [0,3,7,10,11,14];
Upper_Bound = [5,8,10,11,12,20];
Start = 1;
End = 6;
Time = 20;

